
Gurobi 11.0.2 (win64) logging started Mon Aug 19 17:20:29 2024

Set parameter LogFile to value "D:\Documenti\Scuola\Laurea magistrale unibs\laurea-unibs-mkfsp\output\2024-08-19T13_57_45.433552\logs\instance09_bucket6.log"
Set parameter TimeLimit to value 400
Set parameter MIPGap to value 0
Gurobi Optimizer version 11.0.2 build v11.0.2rc0 (win64 - Windows 10.0 (19045.2))

CPU model: Intel(R) Core(TM) i5-4670 CPU @ 3.40GHz, instruction set [SSE2|AVX|AVX2]
Thread count: 4 physical cores, 4 logical processors, using up to 4 threads

Optimize a model with 6423 rows, 32923 columns and 925679 nonzeros
Model fingerprint: 0x41653d93
Variable types: 0 continuous, 32923 integer (32669 binary)
Coefficient statistics:
  Matrix range     [1e+00, 9e+03]
  Objective range  [6e+02, 9e+03]
  Bounds range     [1e+00, 1e+00]
  RHS range        [1e+00, 1e+06]
Found heuristic solution: objective 1303922.0000
Presolve time: 2.30s
Presolved: 6423 rows, 32923 columns, 925679 nonzeros
Variable types: 0 continuous, 32923 integer (32669 binary)
Found heuristic solution: objective 1351761.0000
Deterministic concurrent LP optimizer: primal simplex, dual simplex, and barrier
Showing barrier log only...

Root barrier log...

Ordering time: 0.08s

Barrier statistics:
 AA' NZ     : 9.898e+05
 Factor NZ  : 1.121e+06 (roughly 20 MB of memory)
 Factor Ops : 5.158e+08 (less than 1 second per iteration)
 Threads    : 2

Barrier performed 0 iterations in 3.15 seconds (2.35 work units)
Barrier solve interrupted - model solved by another algorithm

Concurrent spin time: 0.18s (can be avoided by choosing Method=3)

Solved with dual simplex

Root relaxation: objective 1.473302e+06, 1994 iterations, 0.76 seconds (0.49 work units)

    Nodes    |    Current Node    |     Objective Bounds      |     Work
 Expl Unexpl |  Obj  Depth IntInf | Incumbent    BestBd   Gap | It/Node Time

H    0     0                    1473302.0000 1473302.00  0.00%     -    3s
     0     0 1473302.00    0    2 1473302.00 1473302.00  0.00%     -    3s

Explored 1 nodes (3766 simplex iterations) in 3.54 seconds (2.70 work units)
Thread count was 4 (of 4 available processors)

Solution count 3: 1.4733e+06 1.35176e+06 1.30392e+06 

Optimal solution found (tolerance 0.00e+00)
Best objective 1.473302000000e+06, best bound 1.473302000000e+06, gap 0.0000%
